StudentsNr = 5;
InstructorsNr = 5;
DaysNr = 1;
SlotsPerDay = 12;
AvailabilitySlotsLenght = 3;
RoomNr = 2;
ProgrammNr = 1;
DegreeNr = 1;
RolesNr = 0;
CoursesNr = 2;
InstructorsProgramm = [{1}, {1}, {1}, {1}, {1}];
InstructorRolesPerProgramm = [||];
InstructorsAvailability = [|0, 0, 0, 1, |1, 1, 1, 1, |1, 1, 1, 1, |0, 0, 0, 0, |1, 0, 0, 1|];
StudentsProgramm = [1, 1, 1, 1, 1];
StudentsDegree = [1, 1, 1, 1, 1];
StudentsSupervisorId = [4, 1, 1, 5, 4];
StudentsCourseIds = [{1, 2}, {1, 2}, {1, 2}, {1, 2}, {1, 2}];
StudentsAvailability = [|1, 1, 1, 1, |0, 0, 0, 1, |0, 0, 0, 1, |0, 0, 1, 1, |0, 1, 1, 1|];
TheoryticalMinCard = [2, 2, 2, 2, 2];
CoursesInstructorIds = [{1, 2, 3, 4, 5}, {2, 3, 4}];
RolesDemands = [];
RolesContinuity = [];
ExamLen = [2, 2, 2, 2, 2];
LunchTsMinLen = 1;
LunchStarts = [6..7];
SupervisorAvailable = 5;
OptimalLunchLenght = [2, 1];
OptimalStartTs = [1, 2];
OptimalFinishTs = [1, 11];
MinimizeRooms = 500;
RolesSoftContinuity = [|||];
SameDegreeInRoom = 20;
Mergeability = 1;
